
Gurobi 11.0.3 (linux64) logging started Fri Nov 22 05:09:25 2024

Set parameter LogFile to value "/home/yihong/Coding/OR_SUC/SUC_results_bigM100000_thread4/case24_ieee_rts_theta0.1_epsilon0.05_gurobi_seed770000_num_gen100_N_WDR100_load_scaling_factor1_proposed_T8quadra_cost.txt"
Set parameter TimeLimit to value 3600
Gurobi Optimizer version 11.0.3 build v11.0.3rc0 (linux64 - "Ubuntu 20.04.6 LTS")

CPU model: AMD EPYC 7532 32-Core Processor, instruction set [SSE2|AVX|AVX2]
Thread count: 64 physical cores, 128 logical processors, using up to 4 threads

Optimize a model with 18854 rows, 10021 columns and 437434 nonzeros
Model fingerprint: 0xc093c6bc
Model has 800 quadratic constraints
Variable types: 9221 continuous, 800 integer (800 binary)
Coefficient statistics:
  Matrix range     [3e-04, 2e+03]
  QMatrix range    [2e-03, 8e-03]
  QLMatrix range   [2e-01, 6e+01]
  Objective range  [1e+00, 1e+00]
  Bounds range     [1e+00, 1e+00]
  RHS range        [1e+00, 8e+03]
Presolve removed 15646 rows and 4454 columns
Presolve time: 0.12s
Presolved: 3208 rows, 5567 columns, 20345 nonzeros
Presolved model has 800 quadratic constraint(s)
Variable types: 4767 continuous, 800 integer (800 binary)

Root relaxation: objective 1.329755e+04, 2456 iterations, 0.05 seconds (0.06 work units)

    Nodes    |    Current Node    |     Objective Bounds      |     Work
 Expl Unexpl |  Obj  Depth IntInf | Incumbent    BestBd   Gap | It/Node Time

     0     0 13297.5531    0    -          - 13297.5531      -     -    0s
     0     0 15957.2775    0  160          - 15957.2775      -     -    0s
     0     0 110774.597    0  459          - 110774.597      -     -    0s
     0     0 125579.759    0  232          - 125579.759      -     -    0s
     0     0 125588.108    0  124          - 125588.108      -     -    0s
     0     0 125613.369    0   98          - 125613.369      -     -    0s
     0     0 125613.925    0   98          - 125613.925      -     -    0s
     0     0 125613.925    0   99          - 125613.925      -     -    0s
     0     0 125614.252    0   99          - 125614.252      -     -    0s
     0     2 125614.252    0   99          - 125614.252      -     -    1s
H  116   143                    125636.37246 125616.784  0.02%  13.3    1s
*  116   143              48    125636.37246 125616.784  0.02%  13.3    1s

Cutting planes:
  Gomory: 61
  Implied bound: 241
  MIR: 104
  Flow cover: 369
  RLT: 10

Explored 152 nodes (10822 simplex iterations) in 1.88 seconds (2.19 work units)
Thread count was 4 (of 128 available processors)

Solution count 2: 125636 125636 

Optimal solution found (tolerance 1.00e-03)
Warning: max constraint violation (1.1903e-07) exceeds tolerance
Best objective 1.256363724616e+05, best bound 1.256167839885e+05, gap 0.0156%
